files/upTests/tupley32-0-func2/0001.eprime
language ESSENCE' 1.0

find pain_tuple1: matrix indexed by [int(1)] of int(1, 2)
find pain_tuple2_AsReln_RelationAsSet_ExplicitVarSize_tuple1:
        matrix indexed by [int(1), int(1..4)] of bool
find pain_tuple2_AsReln_RelationAsSet_ExplicitVarSize_tuple2_tuple1:
        matrix indexed by [int(1), int(1..4)] of int(1..2)
find pain_tuple2_AsReln_RelationAsSet_ExplicitVarSize_tuple2_tuple2:
        matrix indexed by [int(1), int(1..4)] of int(-1, 1)
find pain_tuple3_tuple1: matrix indexed by [int(1)] of int(4, 5)
find pain_tuple4_tuple1: matrix indexed by [int(1)] of int(7, 8)
find pain_tuple4_tuple2: matrix indexed by [int(1)] of int(2, 3)
such that
    (sum v__0 : int(1..4)
         . (pain_tuple2_AsReln_RelationAsSet_ExplicitVarSize_tuple2_tuple1[1, v__0] = 1
            /\
            pain_tuple2_AsReln_RelationAsSet_ExplicitVarSize_tuple1[1, v__0])
           *
           pain_tuple2_AsReln_RelationAsSet_ExplicitVarSize_tuple2_tuple2[1, v__0])
    !=
    -1,
    pain_tuple1[1] = 2,
    pain_tuple3_tuple1[1] = 5,
    pain_tuple4_tuple1[1] = 7,
    pain_tuple4_tuple2[1] = 3,
    forAll v__0 : int(1..2)
        . (sum v__1 : int(1..4)
               . pain_tuple2_AsReln_RelationAsSet_ExplicitVarSize_tuple1[1, v__1]
                 *
                 (v__0
                  =
                  pain_tuple2_AsReln_RelationAsSet_ExplicitVarSize_tuple2_tuple1[1, v__1]))
          =
          1,
    forAll v__0 : int(1..3)
        . pain_tuple2_AsReln_RelationAsSet_ExplicitVarSize_tuple1[1, v__0]
          <=
          pain_tuple2_AsReln_RelationAsSet_ExplicitVarSize_tuple1[1, v__0 + 1],
    forAll v__0 : int(1..4)
        . (forAll v__1 : int(1..4)
               . v__0 < v__1
                 /\
                 pain_tuple2_AsReln_RelationAsSet_ExplicitVarSize_tuple1[1, v__0]
                 /\
                 pain_tuple2_AsReln_RelationAsSet_ExplicitVarSize_tuple1[1, v__1]
                 ->
                 pain_tuple2_AsReln_RelationAsSet_ExplicitVarSize_tuple2_tuple1[1, v__0]
                 !=
                 pain_tuple2_AsReln_RelationAsSet_ExplicitVarSize_tuple2_tuple1[1, v__1]
                 \/
                 pain_tuple2_AsReln_RelationAsSet_ExplicitVarSize_tuple2_tuple2[1, v__0]
                 !=
                 pain_tuple2_AsReln_RelationAsSet_ExplicitVarSize_tuple2_tuple2[1, v__1]),
    true
