files/upTests/tupley32-0-func2/0001.eprime.solution
language ESSENCE' 1.0
$ minion Nodes: 8
$ minion TotalTime: 0.002204
$ Savile Row TotalTime: 0.355
letting pain_tuple4_tuple2 be [3]
letting pain_tuple2_AsReln_RelationAsSet_ExplicitVarSize_tuple2_tuple1 be [[1, 1, 1, 2]]
letting pain_tuple1 be [2]
letting pain_tuple2_AsReln_RelationAsSet_ExplicitVarSize_tuple2_tuple2 be [[-1, -1, 1, -1]]
letting pain_tuple2_AsReln_RelationAsSet_ExplicitVarSize_tuple1 be [[0, 0, 1, 1]]
letting pain_tuple4_tuple1 be [7]
letting pain_tuple3_tuple1 be [5]
